unsat
(:cnf-encoding-aux-vars        32
 :eliminated-vars              38
 :max-memory                   18.44
 :memory                       18.12
 :nlsat-conflicts              224
 :nlsat-decisions              233
 :nlsat-irrational-assignments 8
 :nlsat-propagations           1974
 :nlsat-stages                 176
 :num-allocs                   120372
 :rlimit-count                 58711
 :time                         0.02
 :total-time                   0.02)
